&CONTROL
   calculation      = 'scf'
   tprnfor          = .true.
   outdir           = './'
   disk_io          = 'none'
   pseudo_dir       = '/tigress/yifanl/Softwares/ONCVPSP/sg15'
/
&SYSTEM
   ecutwfc          = 110
   input_dft        = 'revpbe'
   vdw_corr         = 'dft-d3'
   edir             = 1
   emaxpos          = 0.6
   ntyp             = 2
   nat              = 192
   ibrav            = 0
/
&ELECTRONS
   electron_maxstep = 1000
   mixing_beta      = 0.5
/
&IONS
/
&CELL
/

ATOMIC_SPECIES
O 15.999 O_ONCV_PBE_sr.upf
H 1.008 H_ONCV_PBE_sr.upf

K_POINTS gamma

CELL_PARAMETERS angstrom
12.34076183872121 0.00000000000000 0.00000000000000
0.00000000000000 12.34076183872121 0.00000000000000
0.00000000000000 0.00000000000000 12.34076183872121

ATOMIC_POSITIONS angstrom
O 7.1149551713 10.9647298714 0.9556328086 
H 12.2530560443 7.4959761930 8.7540674994 
H 7.7638200880 1.5536031894 9.4425832839 
O 7.3778874430 1.0672377223 1.7925697016 
H 10.4268454259 6.1137491633 6.8359675684 
H 6.3856038058 10.3416324654 1.5083742973 
O 1.8264080706 10.1663813065 5.4652421287 
H 0.2633197717 11.5042679790 2.9284010805 
H 0.0371287863 2.1064199567 0.5356371928 
O 5.5356461749 5.6739614336 10.2155715832 
H 11.9806830898 0.6391243534 2.5961013865 
H 5.4461386293 8.3238191787 1.9358582874 
O 3.0788102858 10.9146880822 9.2282859546 
H 5.1606968080 9.6146752078 2.8905643047 
H 6.5430842677 1.5770999999 1.4617632398 
O 4.9418457376 6.6437848843 1.8966887093 
H 9.0008457139 1.5188392633 11.4142421214 
H 6.0577591268 10.3468155854 8.0488299826 
O 0.1024576943 6.3304652819 2.1894239209 
H 9.1162194964 2.9348923212 6.2055644314 
H 0.9673256804 6.2708347207 2.0058180662 
O 12.1415942834 0.0745225287 3.2826426491 
H 5.6336071424 6.0314979856 2.1999135684 
H 2.9716184285 4.6858983370 0.2643070326 
O 2.5587212189 0.0585697493 11.7547977851 
H 12.0007491685 7.3242051290 3.5532261932 
H 5.1989901920 0.8048509123 6.3784214824 
O 4.7036690341 1.8942822607 1.5951545345 
H 6.4474557042 1.1088557076 5.3375029029 
H 8.7063827957 0.8225845870 4.9262346738 
O 5.1751725216 9.3484849749 2.0027328758 
H 11.1286768924 3.6019104986 3.3978189793 
H 9.9412981514 0.5704208641 8.9004165941 
O 10.5936061406 1.4426473997 5.2608791126 
H 4.7223282660 6.3584911521 0.9733516744 
H 4.8160563521 10.2868765051 8.5839871198 
O 4.8672581730 10.2688589929 4.2127535281 
H 10.7361666214 1.8641337795 0.3598998079 
H 4.3076169644 2.6826594900 1.9336122687 
O 9.2484631002 9.0071888655 6.1069617443 
H 11.1811251303 1.0621891167 4.5707713698 
H 0.0774202630 10.1357515357 8.0942069639 
O 10.8834412732 10.0897451755 4.4707001321 
H 10.3839119155 10.3709047525 3.6197428995 
H 10.7258497445 9.0474320899 8.9368588638 
O 5.3311474105 1.1415180019 5.5668559616 
H 2.6503143532 4.3952363734 1.5957715726 
H 3.2748803099 6.0935596769 7.4736394141 
O 9.3399575085 0.5796529880 9.7349112504 
H 6.3235544553 4.2036460459 3.0788102858 
H 0.0797780890 1.6554391561 8.9622931739 
O 4.6423477885 4.6825910128 7.7535649149 
H 7.1161769067 0.3170897051 1.3146366772 
H 4.1392766321 4.0201882804 8.2411977782 
O 9.0060905377 3.0008166710 7.1944913813 
H 3.7725462126 8.3086277009 6.1705783716 
H 0.9275686821 10.9804766835 6.8791849163 
O 2.6314946914 6.4933509974 7.6144968697 
H 2.5409875441 3.7102130245 3.7621059281 
H 8.8852621385 12.0780146784 10.0353224158 
O 0.5486283128 2.5753442251 9.1880674118 
H 5.2628289530 5.0438297934 8.4071933657 
H 8.1103857027 10.0474040217 6.4456662937 
O 0.7750627814 9.0988313629 1.5591318507 
H 2.3130413322 9.2372947108 5.1677680645 
H 6.6873477735 2.3455222174 10.1839792329 
O 9.3607146699 8.4603573677 10.4164421637 
H 8.7774902654 7.6112265678 10.3986591259 
H 2.2012216892 11.0462652849 8.8008019645 
O 8.9461267759 2.0093351833 12.1924505629 
H 10.2157073316 8.7923485427 7.5115872568 
H 8.3960249762 9.8677101885 10.4780966098 
O 7.0594094022 6.6864839202 5.2068635980 
H 5.4287875182 4.7014106747 10.5210301203 
H 6.6754883014 5.7876198502 5.3192509161 
O 4.8058135198 8.3621742665 6.1741201702 
H 2.2834728668 10.7790877911 5.0224062308 
H 8.2381125877 2.5301153329 7.4565721405 
O 6.4361022033 4.4616543536 2.1356181992 
H 0.6465658328 2.3311822521 10.8100631033 
H 1.3073803092 6.9746036869 8.6031770044 
O 9.0902051704 9.8512229307 2.4505050783 
H 11.5058475965 9.1394571509 1.1626367477 
H 0.4574769777 3.4145530524 8.3963334953 
O 7.1151773050 2.0503188534 9.2836589530 
H 4.9783743926 8.5781746210 7.0765260389 
H 2.3672049359 7.0083803520 6.1441568005 
O 11.3352365641 5.8761894979 6.2623566173 
H 9.3234825914 4.4077499059 3.8500091746 
H 4.9808919080 9.7721063066 5.1127899705 
O 11.0080829678 8.7245730786 8.0397348412 
H 10.2742025427 4.7673350244 5.2605335713 
H 8.7903369985 4.6672637866 7.6211979034 
O 0.9961685090 4.4885572145 7.0701828873 
H 9.9559342949 8.4052435253 11.2304264738 
H 9.7674538393 9.4472974550 5.2788349211 
O 3.3111374682 2.1570911248 9.4597492837 
H 2.5522916820 2.1362228966 8.8773517102 
H 3.4166880042 7.3133575993 11.7015350570 
O 10.5337040827 8.7831546751 0.7336484187 
H 7.6284295898 0.7788452249 3.5843989576 
H 1.7067643846 8.8417609531 11.8165632981 
O 8.2641639360 6.1593359375 10.4788000333 
H 8.5541965207 6.1199442257 9.4157668085 
H 2.9033863563 12.2496993571 3.4622994599 
O 5.6479717892 9.9983494934 8.8346403335 
H 2.3439919629 5.4849626661 7.6022671747 
H 3.6473738652 4.9775105393 3.8423702431 
O 2.2920003333 8.6728159235 11.0308269918 
H 2.9896359408 10.0472806140 9.8322551798 
H 0.8823126403 2.5105182031 3.7919705717 
O 2.4520353328 4.0754131896 0.7858621820 
H 7.8662730928 5.8166823443 7.0189687257 
H 11.3284614859 11.0126737312 4.6583167343 
O 0.7075378348 7.1867907459 9.1822302314 
H 0.2833056355 5.0493584547 6.9107896074 
H 5.2998265570 12.1290930917 8.6198617144 
O 3.7312046604 6.4283522048 11.8974569920 
H 10.6234214212 4.4712924886 11.6277373012 
H 2.9345714614 12.0467185064 10.8610304497 
O 6.0672738542 4.0356759365 5.4754726202 
H 8.5942176113 1.5020681680 0.5867057334 
H 6.3784338232 7.2440395401 5.5624996727 
O 2.9476896913 0.3727959040 4.3649891662 
H 1.9204816981 0.6789344170 11.3977795451 
H 3.8875991352 1.5690414825 1.2005154821 
O 2.2818315455 7.5837190097 5.3176095948 
H 4.4845588076 6.4208860439 11.5076616885 
H 2.6229919065 7.3511079898 3.8789235796 
O 5.1668301666 0.6658050805 8.2153685637 
H 7.0085778042 11.4649996748 6.0530326150 
H 8.3280644008 10.5906690393 2.1645449450 
O 7.1847545202 10.5889536734 6.6926666419 
H 10.8197135791 0.9928439078 7.0824372638 
H 5.7723790093 3.0441080635 5.3776227196 
O 7.7301915120 10.7633780013 10.6527800937 
H 9.6500314905 9.4669686293 1.6510705264 
H 11.3372110860 2.7890985609 2.1214880269 
O 5.3075642146 2.8592681327 11.1862218649 
H 4.5896527354 2.5359648540 10.8094460652 
H 6.2100071056 0.9599607138 8.4434505240 
O 7.7067317237 0.6900411027 4.6940802621 
H 5.7388244779 4.2395700036 6.4656459871 
H 0.1434712290 5.2029515765 2.2240274171 
O 9.0427302596 5.0535049507 2.2196834689 
H 10.4663728861 2.3733999983 5.2298791189 
H 1.3655299790 9.9644741021 1.5536155302 
O 9.0805300131 7.3118520264 3.4376919808 
H 1.2209271021 8.6737414806 2.2993307458 
H 8.1067451780 7.2077330188 3.7244172414 
O 8.7660627199 5.5977819108 7.6006381942 
H 9.4050180049 3.6167317536 11.8730222835 
H 9.2895825187 8.2867722117 3.3200721798 
O 9.6367775122 4.5102769553 12.0057841994 
H 10.7123242695 7.8611023136 1.0929571041 
H 1.3603838813 4.0276050783 6.2457582927 
O 0.8792854514 2.1778359455 11.7791461082 
H 3.2462620832 7.0998500788 2.4798760915 
H 6.5243386504 5.7410334742 10.2551237249 
O 12.2151082017 7.8653598764 4.4336284835 
H 8.7916327785 8.2844768300 5.5103476132 
H 5.1257230890 2.7797195819 12.1674481795 
O 2.8186793670 11.0455742022 1.6117898815 
H 3.4762815431 10.3862566602 1.4914427720 
H 2.6865961931 11.5425613630 0.7697809353 
O 0.6329996333 10.9224380806 7.9632467993 
H 3.8436043192 0.4977584584 4.7163553372 
H 0.2190633316 5.5219602701 11.6632169915 
O 2.4870090518 7.2856279075 2.7552478512 
H 2.1481934356 1.7359749679 4.3570540563 
H 9.2530785451 6.0800959057 2.3229016009 
O 11.8080728540 3.4282512980 2.8237637609 
H 1.8512500242 8.2736046188 10.3242936950 
H 6.8780989293 10.4968545678 10.0178602378 
O 11.3411231075 1.6038054086 1.1046326989 
H 1.5010438847 2.9608819657 12.1235274081 
H 9.4683754762 4.9703528974 1.2181010677 
O 9.7258284497 4.0756600049 4.7363843937 
H 7.4100227868 4.4870269600 2.2904700788 
H 7.2838508378 10.7616009316 0.0465408385 
O 3.2459042011 4.2215154690 3.4046434206 
H 1.3074173315 7.4846103514 4.9249635754 
H 11.6866397575 6.7424369344 5.7104530664 
O 11.2513810874 0.7232809447 7.9384171865 
H 4.0119076292 1.6369403541 8.9436462828 
H 11.9107603332 12.1817634632 7.8914482469 
O 11.9907531515 5.1668425074 10.9199205652 
H 8.8314070539 5.3700084695 10.8578958962 
H 0.1115507378 5.6302381144 10.0330517156 
O 1.4926768482 2.6431937337 4.5890356973 
H 5.2932119086 10.9855487366 4.5113999646 
H 11.8067770740 8.8133525193 4.2979788294 

